
Gurobi 11.0.3 (linux64) logging started Fri Nov 22 13:05:13 2024

Set parameter LogFile to value "/home/yihong/Coding/OR_SUC/SUC_results_bigM100000_thread4/case24_ieee_rts_theta0.1_epsilon0.05_gurobi_seed860000_num_gen100_N_WDR100_load_scaling_factor1_exact_T28quadra_cost.txt"
Set parameter TimeLimit to value 3600
Gurobi Optimizer version 11.0.3 build v11.0.3rc0 (linux64 - "Ubuntu 20.04.6 LTS")

CPU model: AMD EPYC 7532 32-Core Processor, instruction set [SSE2|AVX|AVX2]
Thread count: 64 physical cores, 128 logical processors, using up to 4 threads

Optimize a model with 67335 rows, 34921 columns and 1546834 nonzeros
Model fingerprint: 0xcd83d1df
Model has 2800 quadratic constraints
Variable types: 32021 continuous, 2900 integer (2900 binary)
Coefficient statistics:
  Matrix range     [6e-05, 1e+05]
  QMatrix range    [2e-03, 8e-03]
  QLMatrix range   [9e-02, 6e+01]
  Objective range  [1e+00, 1e+00]
  Bounds range     [1e+00, 1e+00]
  RHS range        [1e+00, 1e+05]
Presolve removed 54881 rows and 14721 columns
Presolve time: 0.46s
Presolved: 12454 rows, 20200 columns, 69808 nonzeros
Presolved model has 2800 quadratic constraint(s)
Variable types: 17302 continuous, 2898 integer (2898 binary)

Root relaxation: objective 3.368265e+04, 9701 iterations, 0.35 seconds (0.49 work units)

    Nodes    |    Current Node    |     Objective Bounds      |     Work
 Expl Unexpl |  Obj  Depth IntInf | Incumbent    BestBd   Gap | It/Node Time

     0     0 33682.6505    0   11          - 33682.6505      -     -    0s
     0     0 362856.396    0  853          - 362856.396      -     -    1s
     0     0 412465.580    0  852          - 412465.580      -     -    1s
     0     0 757627.210    0  802          - 757627.210      -     -    2s
     0     0 757947.417    0  508          - 757947.417      -     -    2s
     0     0 758719.662    0  422          - 758719.662      -     -    2s
     0     0 758794.887    0  421          - 758794.887      -     -    2s
     0     0 759257.855    0  416          - 759257.855      -     -    2s
     0     0 759309.027    0  415          - 759309.027      -     -    2s
     0     0 759309.592    0  414          - 759309.592      -     -    3s
     0     2 759309.592    0  414          - 759309.592      -     -    5s
H  578   299                    760207.05706 759691.081  0.07%  41.2    7s
*  578   299             175    760207.05706 759691.081  0.07%  41.2    7s

Cutting planes:
  Gomory: 6
  Implied bound: 466
  MIR: 162
  Flow cover: 236
  RLT: 1

Explored 647 nodes (49802 simplex iterations) in 8.19 seconds (10.50 work units)
Thread count was 4 (of 128 available processors)

Solution count 2: 760207 760207 

Optimal solution found (tolerance 1.00e-03)
Warning: max constraint violation (6.2317e-07) exceeds tolerance
Best objective 7.602070570654e+05, best bound 7.596910809090e+05, gap 0.0679%
